NAME: random-56-27392
TYPE: TSP
COMMENT: size=56 seed=27392
DIMENSION: 114
EDGE_WEIGHT_TYPE: EUC_2D
NODE_COORD_SECTION
+0 344 467
-0 344 467
+1 889 565
-1 912 211
+2 87 787
-2 392 811
+3 497 402
-3 696 853
+4 736 898
-4 486 894
+5 331 884
-5 877 102
+6 354 585
-6 15 912
+7 307 391
-7 79 726
+8 421 564
-8 706 606
+9 905 215
-9 506 303
+10 462 66
-10 691 867
+11 758 863
-11 629 921
+12 958 706
-12 627 334
+13 625 138
-13 376 760
+14 686 396
-14 225 250
+15 364 179
-15 334 922
+16 170 819
-16 354 141
+17 609 796
-17 211 818
+18 837 39
-18 110 954
+19 271 75
-19 827 489
+20 355 50
-20 770 266
+21 63 572
-21 758 478
+22 873 483
-22 307 886
+23 55 571
-23 207 941
+24 983 754
-24 777 882
+25 493 25
-25 483 628
+26 834 610
-26 971 89
+27 815 230
-27 385 993
+28 463 447
-28 515 761
+29 392 339
-29 137 420
+30 596 257
-30 794 980
+31 648 835
-31 866 323
+32 467 498
-32 752 13
+33 445 23
-33 168 692
+34 304 577
-34 684 378
+35 172 762
-35 545 818
+36 174 868
-36 932 137
+37 138 845
-37 654 494
+38 796 311
-38 600 724
+39 198 87
-39 291 333
+40 380 2
-40 88 991
+41 577 242
-41 986 18
+42 881 695
-42 921 875
+43 268 322
-43 786 751
+44 243 428
-44 772 487
+45 542 381
-45 398 848
+46 521 208
-46 527 561
+47 619 380
-47 972 683
+48 205 762
-48 512 661
+49 291 155
-49 170 854
+50 464 242
-50 423 711
+51 165 652
-51 985 59
+52 297 997
-52 117 954
+53 109 437
-53 434 218
+54 85 393
-54 213 266
+55 630 396
-55 963 297
+56 990 817
-56 625 498
PRECEDENCE_SECTION
+0 -0
+1 -1
+2 -2
+3 -3
+4 -4
+5 -5
+6 -6
+7 -7
+8 -8
+9 -9
+10 -10
+11 -11
+12 -12
+13 -13
+14 -14
+15 -15
+16 -16
+17 -17
+18 -18
+19 -19
+20 -20
+21 -21
+22 -22
+23 -23
+24 -24
+25 -25
+26 -26
+27 -27
+28 -28
+29 -29
+30 -30
+31 -31
+32 -32
+33 -33
+34 -34
+35 -35
+36 -36
+37 -37
+38 -38
+39 -39
+40 -40
+41 -41
+42 -42
+43 -43
+44 -44
+45 -45
+46 -46
+47 -47
+48 -48
+49 -49
+50 -50
+51 -51
+52 -52
+53 -53
+54 -54
+55 -55
+56 -56
EOF
